(set-logic HORN)


(declare-fun |h8| ( (_ BitVec 32) (_ BitVec 32) (_ BitVec 32) (_ BitVec 32) (_ BitVec 32) (_ BitVec 32) (_ BitVec 32) (_ BitVec 32) ) Bool)
(declare-fun |h4| ( (_ BitVec 32) (_ BitVec 32) (_ BitVec 32) (_ BitVec 32) (_ BitVec 32) (_ BitVec 32) (_ BitVec 32) (_ BitVec 32) ) Bool)
(declare-fun |h6| ( (_ BitVec 32) (_ BitVec 32) (_ BitVec 32) (_ BitVec 32) (_ BitVec 32) (_ BitVec 32) (_ BitVec 32) (_ BitVec 32) ) Bool)
(declare-fun |h1| ( (_ BitVec 32) (_ BitVec 32) (_ BitVec 32) (_ BitVec 32) (_ BitVec 32) (_ BitVec 32) (_ BitVec 32) (_ BitVec 32) ) Bool)
(declare-fun |h3| ( (_ BitVec 32) (_ BitVec 32) (_ BitVec 32) (_ BitVec 32) (_ BitVec 32) (_ BitVec 32) (_ BitVec 32) (_ BitVec 32) ) Bool)
(declare-fun |h2| ( (_ BitVec 32) (_ BitVec 32) (_ BitVec 32) (_ BitVec 32) (_ BitVec 32) (_ BitVec 32) (_ BitVec 32) (_ BitVec 32) ) Bool)
(declare-fun |h7| ( (_ BitVec 32) (_ BitVec 32) (_ BitVec 32) (_ BitVec 32) (_ BitVec 32) (_ BitVec 32) (_ BitVec 32) (_ BitVec 32) ) Bool)
(declare-fun |h9| ( (_ BitVec 32) (_ BitVec 32) (_ BitVec 32) (_ BitVec 32) (_ BitVec 32) (_ BitVec 32) (_ BitVec 32) (_ BitVec 32) ) Bool)
(declare-fun |h12| ( (_ BitVec 32) (_ BitVec 32) (_ BitVec 32) (_ BitVec 32) (_ BitVec 32) (_ BitVec 32) (_ BitVec 32) (_ BitVec 32) ) Bool)
(declare-fun |h15| ( (_ BitVec 32) (_ BitVec 32) (_ BitVec 32) (_ BitVec 32) (_ BitVec 32) (_ BitVec 32) (_ BitVec 32) (_ BitVec 32) ) Bool)
(declare-fun |h16| ( (_ BitVec 32) (_ BitVec 32) (_ BitVec 32) (_ BitVec 32) (_ BitVec 32) (_ BitVec 32) (_ BitVec 32) (_ BitVec 32) ) Bool)
(declare-fun |h13| ( (_ BitVec 32) (_ BitVec 32) (_ BitVec 32) (_ BitVec 32) (_ BitVec 32) (_ BitVec 32) (_ BitVec 32) (_ BitVec 32) ) Bool)
(declare-fun |h11| ( (_ BitVec 32) (_ BitVec 32) (_ BitVec 32) (_ BitVec 32) (_ BitVec 32) (_ BitVec 32) (_ BitVec 32) (_ BitVec 32) ) Bool)
(declare-fun |h10| ( (_ BitVec 32) (_ BitVec 32) (_ BitVec 32) (_ BitVec 32) (_ BitVec 32) (_ BitVec 32) (_ BitVec 32) (_ BitVec 32) ) Bool)
(declare-fun |h5| ( (_ BitVec 32) (_ BitVec 32) (_ BitVec 32) (_ BitVec 32) (_ BitVec 32) (_ BitVec 32) (_ BitVec 32) (_ BitVec 32) ) Bool)
(declare-fun |h14| ( (_ BitVec 32) (_ BitVec 32) (_ BitVec 32) (_ BitVec 32) (_ BitVec 32) (_ BitVec 32) (_ BitVec 32) (_ BitVec 32) ) Bool)

(assert
  (forall ( (A (_ BitVec 32)) (B (_ BitVec 32)) (C (_ BitVec 32)) (D (_ BitVec 32)) (v_4 (_ BitVec 32)) (v_5 (_ BitVec 32)) (v_6 (_ BitVec 32)) (v_7 (_ BitVec 32)) ) 
    (=>
      (and
        (and true (= v_4 A) (= v_5 B) (= v_6 C) (= v_7 D))
      )
      (h1 A B C D v_4 v_5 v_6 v_7)
    )
  )
)
(assert
  (forall ( (A (_ BitVec 32)) (B (_ BitVec 32)) (C (_ BitVec 32)) (D (_ BitVec 32)) (E (_ BitVec 32)) (F (_ BitVec 32)) (G (_ BitVec 32)) (H (_ BitVec 32)) (I (_ BitVec 32)) ) 
    (=>
      (and
        (h1 A B C D E F I H)
        (= G #x00000000)
      )
      (h2 A B C D E F G H)
    )
  )
)
(assert
  (forall ( (A (_ BitVec 32)) (B (_ BitVec 32)) (C (_ BitVec 32)) (D (_ BitVec 32)) (E (_ BitVec 32)) (F (_ BitVec 32)) (G (_ BitVec 32)) (H (_ BitVec 32)) ) 
    (=>
      (and
        (h2 A B C D E F G H)
        true
      )
      (h3 A B C D E F G H)
    )
  )
)
(assert
  (forall ( (A (_ BitVec 32)) (B (_ BitVec 32)) (C (_ BitVec 32)) (D (_ BitVec 32)) (E (_ BitVec 32)) (F (_ BitVec 32)) (G (_ BitVec 32)) (H (_ BitVec 32)) ) 
    (=>
      (and
        (h3 A B C D E F G H)
        (bvsle #x00000000 E)
      )
      (h4 A B C D E F G H)
    )
  )
)
(assert
  (forall ( (A (_ BitVec 32)) (B (_ BitVec 32)) (C (_ BitVec 32)) (D (_ BitVec 32)) (E (_ BitVec 32)) (F (_ BitVec 32)) (G (_ BitVec 32)) (H (_ BitVec 32)) (I (_ BitVec 32)) ) 
    (=>
      (and
        (h4 A B C D E I G H)
        (= F #x00000000)
      )
      (h5 A B C D E F G H)
    )
  )
)
(assert
  (forall ( (A (_ BitVec 32)) (B (_ BitVec 32)) (C (_ BitVec 32)) (D (_ BitVec 32)) (E (_ BitVec 32)) (F (_ BitVec 32)) (G (_ BitVec 32)) (H (_ BitVec 32)) ) 
    (=>
      (and
        (h5 A B C D E F G H)
        true
      )
      (h6 A B C D E F G H)
    )
  )
)
(assert
  (forall ( (A (_ BitVec 32)) (B (_ BitVec 32)) (C (_ BitVec 32)) (D (_ BitVec 32)) (E (_ BitVec 32)) (F (_ BitVec 32)) (G (_ BitVec 32)) (H (_ BitVec 32)) ) 
    (=>
      (and
        (h6 A B C D E F G H)
        true
      )
      (h7 A B C D E F G H)
    )
  )
)
(assert
  (forall ( (A (_ BitVec 32)) (B (_ BitVec 32)) (C (_ BitVec 32)) (D (_ BitVec 32)) (E (_ BitVec 32)) (F (_ BitVec 32)) (G (_ BitVec 32)) (H (_ BitVec 32)) ) 
    (=>
      (and
        (h7 A B C D E F G H)
        true
      )
      (h8 A B C D E F G H)
    )
  )
)
(assert
  (forall ( (A (_ BitVec 32)) (B (_ BitVec 32)) (C (_ BitVec 32)) (D (_ BitVec 32)) (E (_ BitVec 32)) (F (_ BitVec 32)) (G (_ BitVec 32)) (H (_ BitVec 32)) ) 
    (=>
      (and
        (h11 A B C D E F G H)
        true
      )
      (h8 A B C D E F G H)
    )
  )
)
(assert
  (forall ( (A (_ BitVec 32)) (B (_ BitVec 32)) (C (_ BitVec 32)) (D (_ BitVec 32)) (E (_ BitVec 32)) (F (_ BitVec 32)) (G (_ BitVec 32)) (H (_ BitVec 32)) ) 
    (=>
      (and
        (h8 A B C D E F G H)
        true
      )
      (h9 A B C D E F G H)
    )
  )
)
(assert
  (forall ( (A (_ BitVec 32)) (B (_ BitVec 32)) (C (_ BitVec 32)) (D (_ BitVec 32)) (E (_ BitVec 32)) (F (_ BitVec 32)) (G (_ BitVec 32)) (H (_ BitVec 32)) ) 
    (=>
      (and
        (h9 A B C D E F G H)
        (bvsle #x00000001 (bvadd E (bvmul #xffffffff F)))
      )
      (h10 A B C D E F G H)
    )
  )
)
(assert
  (forall ( (A (_ BitVec 32)) (B (_ BitVec 32)) (C (_ BitVec 32)) (D (_ BitVec 32)) (E (_ BitVec 32)) (F (_ BitVec 32)) (G (_ BitVec 32)) (H (_ BitVec 32)) (I (_ BitVec 32)) (J (_ BitVec 32)) ) 
    (=>
      (and
        (h10 A B C D E J I H)
        (and (= I (bvadd #x00000001 (bvmul #xffffffff F) G)) (= J (bvadd #xffffffff F)))
      )
      (h11 A B C D E F G H)
    )
  )
)
(assert
  (forall ( (A (_ BitVec 32)) (B (_ BitVec 32)) (C (_ BitVec 32)) (D (_ BitVec 32)) (E (_ BitVec 32)) (F (_ BitVec 32)) (G (_ BitVec 32)) (H (_ BitVec 32)) ) 
    (=>
      (and
        (h9 A B C D E F G H)
        (bvsle (bvadd E (bvmul #xffffffff F)) #x00000000)
      )
      (h12 A B C D E F G H)
    )
  )
)
(assert
  (forall ( (A (_ BitVec 32)) (B (_ BitVec 32)) (C (_ BitVec 32)) (D (_ BitVec 32)) (E (_ BitVec 32)) (F (_ BitVec 32)) (G (_ BitVec 32)) (H (_ BitVec 32)) ) 
    (=>
      (and
        (h12 A B C D E F G H)
        true
      )
      (h13 A B C D E F G H)
    )
  )
)
(assert
  (forall ( (A (_ BitVec 32)) (B (_ BitVec 32)) (C (_ BitVec 32)) (D (_ BitVec 32)) (E (_ BitVec 32)) (F (_ BitVec 32)) (G (_ BitVec 32)) (H (_ BitVec 32)) ) 
    (=>
      (and
        (h13 A B C D E F G H)
        true
      )
      (h14 A B C D E F G H)
    )
  )
)
(assert
  (forall ( (A (_ BitVec 32)) (B (_ BitVec 32)) (C (_ BitVec 32)) (D (_ BitVec 32)) (E (_ BitVec 32)) (F (_ BitVec 32)) (G (_ BitVec 32)) (H (_ BitVec 32)) ) 
    (=>
      (and
        (h14 A B C D E F G H)
        true
      )
      (h15 A B C D E F G H)
    )
  )
)
(assert
  (forall ( (A (_ BitVec 32)) (B (_ BitVec 32)) (C (_ BitVec 32)) (D (_ BitVec 32)) (E (_ BitVec 32)) (F (_ BitVec 32)) (G (_ BitVec 32)) (H (_ BitVec 32)) ) 
    (=>
      (and
        (h15 A B C D E F G H)
        (bvsle G #xffffffff)
      )
      (h16 A B C D E F G H)
    )
  )
)
(assert
  (forall ( (A (_ BitVec 32)) (B (_ BitVec 32)) (C (_ BitVec 32)) (D (_ BitVec 32)) (E (_ BitVec 32)) (F (_ BitVec 32)) (G (_ BitVec 32)) (H (_ BitVec 32)) ) 
    (=>
      (and
        (h16 A B C D E F G H)
        true
      )
      false
    )
  )
)

(check-sat)
(exit)
